
Starting CP-SAT solver v9.14.6206
Parameters: max_time_in_seconds: 600 log_search_progress: true relative_gap_limit: 0
Setting number of workers to 20

Initial optimization model '': (model_fingerprint: 0x9278c9c18ba5d2f3)
#Variables: 689 (#ints: 1 in objective) (493 primary variables)
  - 160 in [0,18097]
  - 32 in [0,90485]
  - 1 in [0,579104]
  - 1 in [0,3474624]
  - 2 in [0,4053728]
  - 72 in [1440,18097]
  - 420 in [2880,18097]
  - 1 constants in {0} 
#kInterval: 247 (#fixed: 1)
#kLinMax: 96 (#expressions: 192)
#kLinear1: 33
#kLinear2: 310
#kLinear3: 2
#kLinearN: 2 (#terms: 98)
#kNoOverlap: 10 (#intervals: 247, #fixed_intervals: 1)

Starting presolve at 0.00s
  8.94e-05s  0.00e+00d  [DetectDominanceRelations] 
  2.94e-03s  0.00e+00d  [operations_research::sat::CpModelPresolver::PresolveToFixPoint] #num_loops=10 #num_dual_strengthening=1 
  5.40e-06s  0.00e+00d  [operations_research::sat::CpModelPresolver::ExtractEncodingFromLinear] 
  2.35e-05s  0.00e+00d  [operations_research::sat::CpModelPresolver::DetectDuplicateColumns] 
  1.36e-04s  0.00e+00d  [operations_research::sat::CpModelPresolver::DetectDuplicateConstraints] 
[Symmetry] Graph for symmetry has 1'591 nodes and 1'537 arcs.
[Symmetry] Symmetry computation done. time: 0.0001541 dtime: 0.00024109
  1.36e-04s  0.00e+00d  [operations_research::sat::CpModelPresolver::DetectDuplicateConstraintsWithDifferentEnforcements] 
  9.66e-04s  5.27e-06d  [operations_research::sat::CpModelPresolver::Probe] #new_bounds=17 
  4.90e-06s  0.00e+00d  [MaxClique] 
  1.21e-04s  0.00e+00d  [DetectDominanceRelations] 
  8.19e-04s  0.00e+00d  [operations_research::sat::CpModelPresolver::PresolveToFixPoint] #num_loops=2 #num_dual_strengthening=1 
  6.19e-05s  0.00e+00d  [operations_research::sat::CpModelPresolver::ProcessAtMostOneAndLinear] 
  1.02e-04s  0.00e+00d  [operations_research::sat::CpModelPresolver::DetectDuplicateConstraints] 
  1.01e-04s  0.00e+00d  [operations_research::sat::CpModelPresolver::DetectDuplicateConstraintsWithDifferentEnforcements] 
  5.65e-05s  1.84e-06d  [operations_research::sat::CpModelPresolver::DetectDominatedLinearConstraints] #relevant_constraints=307 
  4.80e-05s  0.00e+00d  [operations_research::sat::CpModelPresolver::DetectDifferentVariables] 
  4.90e-06s  0.00e+00d  [operations_research::sat::CpModelPresolver::ProcessSetPPC] 
  6.80e-06s  0.00e+00d  [operations_research::sat::CpModelPresolver::FindAlmostIdenticalLinearConstraints] 
  1.81e-05s  0.00e+00d  [operations_research::sat::CpModelPresolver::FindBigAtMostOneAndLinearOverlap] 
  4.18e-05s  1.09e-05d  [operations_research::sat::CpModelPresolver::FindBigVerticalLinearOverlap] 
  5.00e-06s  0.00e+00d  [operations_research::sat::CpModelPresolver::FindBigHorizontalLinearOverlap] 
  9.20e-06s  0.00e+00d  [operations_research::sat::CpModelPresolver::MergeClauses] 
  1.13e-04s  0.00e+00d  [DetectDominanceRelations] 
  6.04e-04s  0.00e+00d  [operations_research::sat::CpModelPresolver::PresolveToFixPoint] #num_loops=1 #num_dual_strengthening=1 
  1.09e-04s  0.00e+00d  [DetectDominanceRelations] 
  5.55e-04s  0.00e+00d  [operations_research::sat::CpModelPresolver::PresolveToFixPoint] #num_loops=1 #num_dual_strengthening=1 
  2.59e-05s  0.00e+00d  [operations_research::sat::CpModelPresolver::DetectDuplicateColumns] 
  1.05e-04s  0.00e+00d  [operations_research::sat::CpModelPresolver::DetectDuplicateConstraints] 
[Symmetry] Graph for symmetry has 1'498 nodes and 1'352 arcs.
[Symmetry] Symmetry computation done. time: 0.0001042 dtime: 0.00022736
  1.11e-04s  0.00e+00d  [operations_research::sat::CpModelPresolver::DetectDuplicateConstraintsWithDifferentEnforcements] 
  8.17e-04s  2.34e-06d  [operations_research::sat::CpModelPresolver::Probe] 
  4.80e-06s  0.00e+00d  [MaxClique] 
  1.10e-04s  0.00e+00d  [DetectDominanceRelations] 
  5.65e-04s  0.00e+00d  [operations_research::sat::CpModelPresolver::PresolveToFixPoint] #num_loops=1 #num_dual_strengthening=1 
  6.09e-05s  0.00e+00d  [operations_research::sat::CpModelPresolver::ProcessAtMostOneAndLinear] 
  1.03e-04s  0.00e+00d  [operations_research::sat::CpModelPresolver::DetectDuplicateConstraints] 
  1.09e-04s  0.00e+00d  [operations_research::sat::CpModelPresolver::DetectDuplicateConstraintsWithDifferentEnforcements] 
  5.27e-05s  1.84e-06d  [operations_research::sat::CpModelPresolver::DetectDominatedLinearConstraints] #relevant_constraints=307 
  4.54e-05s  0.00e+00d  [operations_research::sat::CpModelPresolver::DetectDifferentVariables] 
  4.20e-06s  0.00e+00d  [operations_research::sat::CpModelPresolver::ProcessSetPPC] 
  6.60e-06s  0.00e+00d  [operations_research::sat::CpModelPresolver::FindAlmostIdenticalLinearConstraints] 
  1.69e-05s  0.00e+00d  [operations_research::sat::CpModelPresolver::FindBigAtMostOneAndLinearOverlap] 
  3.88e-05s  1.09e-05d  [operations_research::sat::CpModelPresolver::FindBigVerticalLinearOverlap] 
  4.40e-06s  0.00e+00d  [operations_research::sat::CpModelPresolver::FindBigHorizontalLinearOverlap] 
  8.80e-06s  0.00e+00d  [operations_research::sat::CpModelPresolver::MergeClauses] 
  1.08e-04s  0.00e+00d  [DetectDominanceRelations] 
  5.42e-04s  0.00e+00d  [operations_research::sat::CpModelPresolver::PresolveToFixPoint] #num_loops=1 #num_dual_strengthening=1 
  3.13e-05s  0.00e+00d  [operations_research::sat::CpModelPresolver::ExpandObjective] 

Presolve summary:
  - 340 affine relations were detected.
  - rule 'TODO dual: only one blocking constraint?' was applied 570 times.
  - rule 'TODO dual: only one unspecified blocking constraint?' was applied 465 times.
  - rule 'affine: new relation' was applied 340 times.
  - rule 'intervals: removed unused interval' was applied 1 time.
  - rule 'lin_max: converted to equality' was applied 3 times.
  - rule 'lin_max: removed exprs' was applied 3 times.
  - rule 'lin_max: rewrite with precedences' was applied 93 times.
  - rule 'lin_max: target domain reduced' was applied 96 times.
  - rule 'linear1: x in domain' was applied 11 times.
  - rule 'linear: always true' was applied 118 times.
  - rule 'linear: doubleton free' was applied 2 times.
  - rule 'linear: empty' was applied 3 times.
  - rule 'linear: fixed or dup variables' was applied 10 times.
  - rule 'linear: reduced variable domains' was applied 1'384 times.
  - rule 'linear: remapped using affine relations' was applied 526 times.
  - rule 'linear: variable substitution 0' was applied 1 time.
  - rule 'linear: variable substitution 1' was applied 2 times.
  - rule 'no_overlap: split into disjoint components' was applied 1 time.
  - rule 'presolve: 7 unused variables removed.' was applied 1 time.
  - rule 'presolve: iteration' was applied 2 times.

Presolved optimization model '': (model_fingerprint: 0xe913d53f395ed5f3)
#Variables: 339 (#ints: 93 in objective) (246 primary variables)
  - 217 different domains in [0,18076] with a largest complexity of 1.
#kInterval: 246
#kLinear2: 307
#kNoOverlap: 10 (#intervals: 246)
[Symmetry] Graph for symmetry has 1'148 nodes and 1'352 arcs.
[Symmetry] Symmetry computation done. time: 9.04e-05 dtime: 0.00020636

Preloading model.
#Bound   0.01s best:inf   next:[0,2257352] initial_domain
#Model   0.01s var:339/339 constraints:563/563

Starting search at 0.01s with 20 workers.
13 full problem subsolvers: [core, default_lp, fixed, lb_tree_search, max_lp, no_lp, objective_lb_search, objective_shaving_no_lp, probing, pseudo_costs, quick_restart, quick_restart_no_lp, reduced_costs]
7 first solution subsolvers: [fj(2), fj_lin, fs_random, fs_random_no_lp, fs_random_quick_restart, fs_random_quick_restart_no_lp]
17 interleaved subsolvers: [feasibility_pump, graph_arc_lns, graph_cst_lns, graph_dec_lns, graph_var_lns, lb_relax_lns, ls(2), ls_lin, rins/rens, rnd_cst_lns, rnd_var_lns, scheduling_intervals_lns, scheduling_precedences_lns, scheduling_resource_windows_lns, scheduling_time_window_lns, variables_shaving]
3 helper subsolvers: [neighborhood_helper, synchronization_agent, update_gap_integral]

#1       0.03s best:51538 next:[0,51537]  no_lp
#Bound   0.03s best:51538 next:[14,51537] objective_lb_search
#2       0.03s best:540   next:[14,539]   core
#3       0.05s best:113   next:[14,112]   objective_lb_search
#Bound   0.11s best:113   next:[15,112]   bool_core (num_cores=1 [cover] a=92 d=2 fixed=13/409 clauses=317)
#Bound   0.11s best:113   next:[16,112]   bool_core (num_cores=1 [cover] a=92 d=2 fixed=14/416 clauses=362)
#Bound   0.11s best:113   next:[17,112]   bool_core (num_cores=1 [cover] a=92 d=2 fixed=15/423 clauses=410)
#Bound   0.11s best:113   next:[18,112]   bool_core (num_cores=1 [cover] a=92 d=2 fixed=16/430 clauses=461)
#Bound   0.11s best:113   next:[19,112]   bool_core (num_cores=1 [cover] a=92 d=2 fixed=17/437 clauses=515)
#Bound   0.11s best:113   next:[20,112]   bool_core (num_cores=1 [cover] a=92 d=2 fixed=18/444 clauses=572)
#Bound   0.11s best:113   next:[21,112]   bool_core (num_cores=1 [cover] a=92 d=2 fixed=19/451 clauses=632)
#Bound   0.11s best:113   next:[22,112]   bool_core (num_cores=1 [cover] a=92 d=2 fixed=20/458 clauses=695)
#4       0.11s best:37    next:[22,36]    lb_relax_lns_int (d=5.00e-01 s=27 t=0.50 p=0.00 stall=0 h=base)
#5       0.15s best:36    next:[22,35]    no_lp
#6       0.16s best:22    next:[]         core
#Done    0.16s core

Task timing                                  n [     min,      max]      avg      dev     time         n [     min,      max]      avg      dev    dtime
                             'core':         1 [142.77ms, 142.77ms] 142.77ms   0.00ns 142.77ms         1 [  6.21ms,   6.21ms]   6.21ms   0.00ns   6.21ms
                       'default_lp':         1 [144.23ms, 144.23ms] 144.23ms   0.00ns 144.23ms         1 [ 10.76ms,  10.76ms]  10.76ms   0.00ns  10.76ms
                 'feasibility_pump':         1 [  4.50ms,   4.50ms]   4.50ms   0.00ns   4.50ms         0 [  0.00ns,   0.00ns]   0.00ns   0.00ns   0.00ns
                            'fixed':         1 [143.93ms, 143.93ms] 143.93ms   0.00ns 143.93ms         1 [ 14.82ms,  14.82ms]  14.82ms   0.00ns  14.82ms
                               'fj':         1 [ 91.96ms,  91.96ms]  91.96ms   0.00ns  91.96ms         1 [100.05ms, 100.05ms] 100.05ms   0.00ns 100.05ms
                               'fj':         1 [109.12ms, 109.12ms] 109.12ms   0.00ns 109.12ms         1 [100.29ms, 100.29ms] 100.29ms   0.00ns 100.29ms
                           'fj_lin':         0 [  0.00ns,   0.00ns]   0.00ns   0.00ns   0.00ns         0 [  0.00ns,   0.00ns]   0.00ns   0.00ns   0.00ns
                        'fs_random':         1 [  9.23ms,   9.23ms]   9.23ms   0.00ns   9.23ms         1 [  3.48us,   3.48us]   3.48us   0.00ns   3.48us
                  'fs_random_no_lp':         1 [  8.61ms,   8.61ms]   8.61ms   0.00ns   8.61ms         1 [284.16us, 284.16us] 284.16us   0.00ns 284.16us
          'fs_random_quick_restart':         1 [  8.07ms,   8.07ms]   8.07ms   0.00ns   8.07ms         0 [  0.00ns,   0.00ns]   0.00ns   0.00ns   0.00ns
    'fs_random_quick_restart_no_lp':         1 [  9.00ms,   9.00ms]   9.00ms   0.00ns   9.00ms         1 [237.45us, 237.45us] 237.45us   0.00ns 237.45us
                    'graph_arc_lns':         1 [128.46ms, 128.46ms] 128.46ms   0.00ns 128.46ms         1 [  5.27ms,   5.27ms]   5.27ms   0.00ns   5.27ms
                    'graph_cst_lns':         1 [ 11.88ms,  11.88ms]  11.88ms   0.00ns  11.88ms         1 [ 95.69us,  95.69us]  95.69us   0.00ns  95.69us
                    'graph_dec_lns':         1 [433.90us, 433.90us] 433.90us   0.00ns 433.90us         0 [  0.00ns,   0.00ns]   0.00ns   0.00ns   0.00ns
                    'graph_var_lns':         1 [129.39ms, 129.39ms] 129.39ms   0.00ns 129.39ms         1 [  4.85ms,   4.85ms]   4.85ms   0.00ns   4.85ms
                     'lb_relax_lns':         1 [ 55.23ms,  55.23ms]  55.23ms   0.00ns  55.23ms         1 [  1.94ms,   1.94ms]   1.94ms   0.00ns   1.94ms
                   'lb_tree_search':         1 [141.80ms, 141.80ms] 141.80ms   0.00ns 141.80ms         0 [  0.00ns,   0.00ns]   0.00ns   0.00ns   0.00ns
                               'ls':         0 [  0.00ns,   0.00ns]   0.00ns   0.00ns   0.00ns         0 [  0.00ns,   0.00ns]   0.00ns   0.00ns   0.00ns
                               'ls':         0 [  0.00ns,   0.00ns]   0.00ns   0.00ns   0.00ns         0 [  0.00ns,   0.00ns]   0.00ns   0.00ns   0.00ns
                           'ls_lin':         0 [  0.00ns,   0.00ns]   0.00ns   0.00ns   0.00ns         0 [  0.00ns,   0.00ns]   0.00ns   0.00ns   0.00ns
                           'max_lp':         1 [143.15ms, 143.15ms] 143.15ms   0.00ns 143.15ms         1 [ 11.34ms,  11.34ms]  11.34ms   0.00ns  11.34ms
                            'no_lp':         1 [143.29ms, 143.29ms] 143.29ms   0.00ns 143.29ms         1 [ 11.96ms,  11.96ms]  11.96ms   0.00ns  11.96ms
              'objective_lb_search':         1 [140.16ms, 140.16ms] 140.16ms   0.00ns 140.16ms         1 [ 14.57ms,  14.57ms]  14.57ms   0.00ns  14.57ms
          'objective_shaving_no_lp':         1 [ 22.65ms,  22.65ms]  22.65ms   0.00ns  22.65ms         1 [ 82.65us,  82.65us]  82.65us   0.00ns  82.65us
                          'probing':         1 [142.16ms, 142.16ms] 142.16ms   0.00ns 142.16ms         0 [  0.00ns,   0.00ns]   0.00ns   0.00ns   0.00ns
                     'pseudo_costs':         1 [141.28ms, 141.28ms] 141.28ms   0.00ns 141.28ms         1 [ 16.06ms,  16.06ms]  16.06ms   0.00ns  16.06ms
                    'quick_restart':         1 [142.64ms, 142.64ms] 142.64ms   0.00ns 142.64ms         1 [ 13.27ms,  13.27ms]  13.27ms   0.00ns  13.27ms
              'quick_restart_no_lp':         1 [141.61ms, 141.61ms] 141.61ms   0.00ns 141.61ms         1 [ 17.70ms,  17.70ms]  17.70ms   0.00ns  17.70ms
                    'reduced_costs':         1 [143.20ms, 143.20ms] 143.20ms   0.00ns 143.20ms         0 [  0.00ns,   0.00ns]   0.00ns   0.00ns   0.00ns
                        'rins/rens':         1 [ 47.36ms,  47.36ms]  47.36ms   0.00ns  47.36ms         1 [  1.69ms,   1.69ms]   1.69ms   0.00ns   1.69ms
                      'rnd_cst_lns':         1 [130.18ms, 130.18ms] 130.18ms   0.00ns 130.18ms         1 [  6.49ms,   6.49ms]   6.49ms   0.00ns   6.49ms
                      'rnd_var_lns':         1 [123.59ms, 123.59ms] 123.59ms   0.00ns 123.59ms         1 [  6.67ms,   6.67ms]   6.67ms   0.00ns   6.67ms
         'scheduling_intervals_lns':         1 [ 41.78ms,  41.78ms]  41.78ms   0.00ns  41.78ms         1 [348.43us, 348.43us] 348.43us   0.00ns 348.43us
       'scheduling_precedences_lns':         0 [  0.00ns,   0.00ns]   0.00ns   0.00ns   0.00ns         0 [  0.00ns,   0.00ns]   0.00ns   0.00ns   0.00ns
  'scheduling_resource_windows_lns':         1 [  7.15ms,   7.15ms]   7.15ms   0.00ns   7.15ms         0 [  0.00ns,   0.00ns]   0.00ns   0.00ns   0.00ns
       'scheduling_time_window_lns':         1 [ 28.50ms,  28.50ms]  28.50ms   0.00ns  28.50ms         1 [146.38us, 146.38us] 146.38us   0.00ns 146.38us
                'variables_shaving':         1 [139.15ms, 139.15ms] 139.15ms   0.00ns 139.15ms         1 [  5.47ms,   5.47ms]   5.47ms   0.00ns   5.47ms

Search stats                        Bools  Conflicts  Branches  Restarts  BoolPropag  IntegerPropag
                           'core':    481         25     3'411     1'191       5'640         36'168
                     'default_lp':    429         46       974       306       2'063         80'854
                          'fixed':    682         65     1'556       439       4'156        113'437
                      'fs_random':      0          0         0         0           0              0
                'fs_random_no_lp':     54          0        54         0           0          2'220
        'fs_random_quick_restart':      0          0         0         0           0              0
  'fs_random_quick_restart_no_lp':     48          0        48         0           0          1'857
                 'lb_tree_search':  2'921          0     2'396     2'396           0         16'696
                         'max_lp':    285         29       427        97         276         37'173
                          'no_lp':    801         57     2'385       359       3'012         93'526
            'objective_lb_search':    377         76     1'078       450       2'497        110'138
                        'probing':  2'921          0     2'046     2'046           0         13'957
                   'pseudo_costs':    288         10       609       255         200         29'823
                  'quick_restart':    493         24     1'489       454       4'160         98'654
            'quick_restart_no_lp':    695         10     1'913       402       9'586        144'570
                  'reduced_costs':  2'921          0     2'316     2'316           0         16'058

SAT stats                           ClassicMinim  LitRemoved  LitLearned  LitForgotten  Subsumed  MClauses  MDecisions  MLitTrue  MSubsumed  MLitRemoved  MReused
                           'core':             3          21         153             0         0       122         206         0          0            0       38
                     'default_lp':            44         167         837             0         0         0           0         0          0            0        0
                          'fixed':             0           0         342             0         0         0           0         0          0            0        0
                      'fs_random':             0           0           0             0         0         0           0         0          0            0        0
                'fs_random_no_lp':             0           0           0             0         0         0           0         0          0            0        0
        'fs_random_quick_restart':             0           0           0             0         0         0           0         0          0            0        0
  'fs_random_quick_restart_no_lp':             0           0           0             0         0         0           0         0          0            0        0
                 'lb_tree_search':             0           0           0             0         0         0           0         0          0            0        0
                         'max_lp':             0           0          99             0         0         0           0         0          0            0        0
                          'no_lp':            52         236       4'049             0         0         0           0         0          0            0        0
            'objective_lb_search':            16          23         742             0         0        65          62         0          7           26       95
                        'probing':             0           0           0             0         0         0           0         0          0            0        0
                   'pseudo_costs':             0           0          73             0         0         0           0         0          0            0        0
                  'quick_restart':            14          53         688             0         0         0           0         0          0            0        0
            'quick_restart_no_lp':             0           0          29             0         0         0           0         0          0            0        0
                  'reduced_costs':             0           0           0             0         0         0           0         0          0            0        0

Lp stats                      Component  Iterations  AddedCuts  OPTIMAL  DUAL_F.  DUAL_U.
               'default_lp':         32         632          0    1'679        0        0
                    'fixed':         32         860          0    1'534        0        0
                'fs_random':         32          59          0       72        0        0
  'fs_random_quick_restart':         32          55          0       64        0        0
           'lb_tree_search':          1           0          0        0        0        0
                   'max_lp':          1         572        308      187        0        0
      'objective_lb_search':         32         848          0    1'525        0        0
                  'probing':         32           0          0        0        0        0
             'pseudo_costs':          1         747        637      185        9        0
            'quick_restart':         32         906          0    1'907        0        0
            'reduced_costs':          1           0          0        0        0        0

Lp dimension                  Final dimension of first component
               'default_lp':      7 rows, 10 columns, 14 entries
                    'fixed':      7 rows, 10 columns, 14 entries
                'fs_random':       3 rows, 10 columns, 6 entries
  'fs_random_quick_restart':       2 rows, 10 columns, 4 entries
           'lb_tree_search':  307 rows, 339 columns, 614 entries
                   'max_lp':  254 rows, 339 columns, 939 entries
      'objective_lb_search':      7 rows, 10 columns, 14 entries
                  'probing':       0 rows, 10 columns, 0 entries
             'pseudo_costs':  233 rows, 339 columns, 733 entries
            'quick_restart':      7 rows, 10 columns, 14 entries
            'reduced_costs':      0 rows, 339 columns, 0 entries

Lp debug                      CutPropag  CutEqPropag  Adjust  Overflow  Bad  BadScaling
               'default_lp':          0            0       0         0    0           0
                    'fixed':          0            0       0         0    0           0
                'fs_random':          0            0       0         0    0           0
  'fs_random_quick_restart':          0            0       0         0    0           0
           'lb_tree_search':          0            0       0         0    0           0
                   'max_lp':          0            0       0         0  803           0
      'objective_lb_search':          0            0       0         0    0           0
                  'probing':          0            0       0         0    0           0
             'pseudo_costs':          0           16       0         0  153           0
            'quick_restart':          0            0       0         0    0           0
            'reduced_costs':          0            0       0         0    0           0

Lp pool                       Constraints  Updates  Simplif  Merged  Shortened  Split  Strenghtened  Cuts/Call
               'default_lp':          307        0        0       0          0      0             0        0/0
                    'fixed':          307        0        0       0          0      0             0        0/0
                'fs_random':          307        0        0       0          0      0             0        0/0
  'fs_random_quick_restart':          307        0        0       0          0      0             0        0/0
           'lb_tree_search':          307        0        0       0          0      0             0        0/0
                   'max_lp':          594      231       95      21          0      0             6    308/380
      'objective_lb_search':          307        0       12       0          0      0             0        0/0
                  'probing':          307        0        0       0          0      0             0        0/0
             'pseudo_costs':          923       73      700      21          0      0             0    637/911
            'quick_restart':          307        0       51       0          0      0             0        0/0
            'reduced_costs':          307        0        0       0          0      0             0        0/0

Lp Cut                                                max_lp  pseudo_costs
                                               CG_R:       6             2
                                            MIR_1_K:       -             2
                                            MIR_1_R:       2             8
                  NoOverlapCompletionTimeExhaustive:      10            10
           NoOverlapCompletionTimeExhaustive_lifted:      16            28
  NoOverlapCompletionTimeExhaustive_lifted_weighted:      26            92
         NoOverlapCompletionTimeExhaustive_weighted:      17            26
                    NoOverlapCompletionTimeQueyrane:      48           113
             NoOverlapCompletionTimeQueyrane_lifted:      73           159
                        NoOverlapDetectedPrecedence:      20             7
                          NoOverlapDisjunctionOnEnd:       3             -
                        NoOverlapDisjunctionOnStart:      85           187
                                        ZERO_HALF_R:       2             3

LNS stats                             Improv/Calls  Closed  Difficulty  TimeLimit
                    'graph_arc_lns':           1/1      0%    2.93e-01       0.10
                    'graph_cst_lns':           0/1    100%    7.07e-01       0.10
                    'graph_dec_lns':           0/0      0%    5.00e-01       0.10
                    'graph_var_lns':           1/1      0%    2.93e-01       0.10
                     'lb_relax_lns':           1/1    100%    7.07e-01       0.50
                        'rins/rens':           0/1      0%    2.93e-01       0.10
                      'rnd_cst_lns':           1/1      0%    2.93e-01       0.10
                      'rnd_var_lns':           1/1    100%    7.07e-01       0.10
         'scheduling_intervals_lns':           1/1      0%    2.93e-01       0.10
       'scheduling_precedences_lns':           0/0      0%    5.00e-01       0.10
  'scheduling_resource_windows_lns':           0/0      0%    5.00e-01       0.10
       'scheduling_time_window_lns':           1/1      0%    2.93e-01       0.10

LS stats                                    Batches  Restarts/Perturbs  LinMoves  GenMoves  CompoundMoves  Bactracks  WeightUpdates  ScoreComputed
                             'fj_restart':        1                  1        57     1'084              0          0             12        215'417
  'fj_restart_decay_compound_perturb_obj':        1                  1         0     3'903          1'100      1'399             21        202'218

Solutions (6)             Num   Rank
                 'core':    2  [2,6]
     'lb_relax_lns_int':    1  [4,4]
                'no_lp':    2  [1,5]
  'objective_lb_search':    1  [3,3]

Objective bounds          Num
            'bool_core':    8
       'initial_domain':    1
  'objective_lb_search':    1

Solution repositories    Added  Queried  Synchro
  'feasible solutions':     20       23       12
   'fj solution hints':      0        0        0
        'lp solutions':      4        1        1
                'pump':      0        0

Improving bounds shared    Num  Sym
            'default_lp':    5    0
                 'fixed':  596    0
                 'no_lp':  585    0
   'objective_lb_search':  672    0
          'pseudo_costs':    2    0
         'quick_restart':   24    0
   'quick_restart_no_lp':  278    0

CpSolverResponse summary:
status: OPTIMAL
objective: 22
best_bound: 22
integers: 340
booleans: 54
conflicts: 0
branches: 54
propagations: 0
integer_propagations: 2220
restarts: 0
lp_iterations: 0
walltime: 0.182046
usertime: 0.182046
deterministic_time: 0.350651
gap_integral: 0.594166
solution_fingerprint: 0x3512e9fb07ca5802

